p cnf 28 35
-1 28 0 
-2 21 28 0 
-3 28 0 
-4 28 0 
-5 -1 28 0 
-6 -4 28 0 
-4 28 0 
-4 -3 28 0 
-7 -4 28 0 
-8 -9 -1 28 0 
-10 -1 28 0 
-1 28 0 
-11 28 0 
-12 28 0 
-13 -4 28 0 
-6 -4 28 0 
-5 -4 28 0 
-14 -4 28 0 
-15 -16 23 28 0 
-9 -4 28 0 
-13 -17 -1 28 0 
-1 -18 22 28 0 
-19 -1 28 0 
-14 -20 -4 28 0 
-19 -21 2 -22 18 -23 16 28 0 
-4 -21 2 28 0 
-21 2 -22 18 28 0 
-24 -25 -1 28 0 
-26 -4 28 0 
-8 -17 -1 28 0 
-10 -4 28 0 
-17 -4 28 0 
-27 28 0 
-6 -1 28 0 
-26 -25 -1 28 0 
